50
13286

483 406
559 295
734 903
656 589
583 679
294 105
550 191
982 294
784 572
353 188
180 32
257 702
781 57
521 267
897 513
788 584
708 180
458 384
737 463
422 649
605 143
951 407
438 748
72 636
385 42
76 528
424 502
239 643
379 35
382 333
996 90
414 119
694 742
566 709
151 840
591 187
299 503
192 64
71 370
209 628
727 232
862 285
41 495
912 905
136 643
758 14
646 977
213 207
78 211
125 441
